========================================================== 
File name: C:\DEGR\assets\definitions\MSRCPSP_noconst\100_40_0_0.def
Creation date: Sat May 13 10:38:05 CEST 2023
Website: http://imopse.ii.pwr.edu.pl/ 
Reference: 
Myszkowski P. B., Skowronski M. E., Olech L., Oslizlo K., 
Hybrid Ant Colony Optimization in solving Multi-Skill Resource-Constrained Project Scheduling Problem, 
Soft Computing, DOI: DOI 10.1007/s00500-014-1455-x 
========================================================== 
General characteristics: 
Tasks: 100
Resources: 40
Precedence relations: 0
Number of skill types: 1
========================================================== 
ResourceID 	 Salary 	 Skills 
1	 	 	80.8	 	 Q0: 0 	 
2	 	 	73.2	 	 Q0: 0 	 
3	 	 	53.1	 	 Q0: 0 	 
4	 	 	98.2	 	 Q0: 0 	 
5	 	 	54.1	 	 Q0: 0 	 
6	 	 	44.3	 	 Q0: 0 	 
7	 	 	51.9	 	 Q0: 0 	 
8	 	 	58.5	 	 Q0: 0 	 
9	 	 	52.4	 	 Q0: 0 	 
10	 	 	43.4	 	 Q0: 0 	 
11	 	 	87.2	 	 Q0: 0 	 
12	 	 	46.2	 	 Q0: 0 	 
13	 	 	38.4	 	 Q0: 0 	 
14	 	 	89.5	 	 Q0: 0 	 
15	 	 	69.9	 	 Q0: 0 	 
16	 	 	47.0	 	 Q0: 0 	 
17	 	 	77.7	 	 Q0: 0 	 
18	 	 	67.0	 	 Q0: 0 	 
19	 	 	95.7	 	 Q0: 0 	 
20	 	 	41.1	 	 Q0: 0 	 
21	 	 	39.4	 	 Q0: 0 	 
22	 	 	81.5	 	 Q0: 0 	 
23	 	 	34.0	 	 Q0: 0 	 
24	 	 	48.7	 	 Q0: 0 	 
25	 	 	73.3	 	 Q0: 0 	 
26	 	 	61.2	 	 Q0: 0 	 
27	 	 	50.3	 	 Q0: 0 	 
28	 	 	54.9	 	 Q0: 0 	 
29	 	 	23.2	 	 Q0: 0 	 
30	 	 	55.9	 	 Q0: 0 	 
31	 	 	55.3	 	 Q0: 0 	 
32	 	 	16.2	 	 Q0: 0 	 
33	 	 	13.5	 	 Q0: 0 	 
34	 	 	98.5	 	 Q0: 0 	 
35	 	 	56.7	 	 Q0: 0 	 
36	 	 	86.5	 	 Q0: 0 	 
37	 	 	52.5	 	 Q0: 0 	 
38	 	 	45.7	 	 Q0: 0 	 
39	 	 	80.1	 	 Q0: 0 	 
40	 	 	48.3	 	 Q0: 0 	 
========================================================== 
TaskID 	 Duration 	 Skill 	 Predecessor IDs 
1	 	 	30	 Q0: 0	 	
2	 	 	27	 Q0: 0	 	
3	 	 	9	 Q0: 0	 	
4	 	 	22	 Q0: 0	 	
5	 	 	34	 Q0: 0	 	
6	 	 	38	 Q0: 0	 	
7	 	 	27	 Q0: 0	 	
8	 	 	13	 Q0: 0	 	
9	 	 	26	 Q0: 0	 	
10	 	 	39	 Q0: 0	 	
11	 	 	30	 Q0: 0	 	
12	 	 	26	 Q0: 0	 	
13	 	 	10	 Q0: 0	 	
14	 	 	28	 Q0: 0	 	
15	 	 	11	 Q0: 0	 	
16	 	 	16	 Q0: 0	 	
17	 	 	23	 Q0: 0	 	
18	 	 	36	 Q0: 0	 	
19	 	 	23	 Q0: 0	 	
20	 	 	30	 Q0: 0	 	
21	 	 	34	 Q0: 0	 	
22	 	 	17	 Q0: 0	 	
23	 	 	35	 Q0: 0	 	
24	 	 	29	 Q0: 0	 	
25	 	 	9	 Q0: 0	 	
26	 	 	33	 Q0: 0	 	
27	 	 	33	 Q0: 0	 	
28	 	 	28	 Q0: 0	 	
29	 	 	24	 Q0: 0	 	
30	 	 	39	 Q0: 0	 	
31	 	 	12	 Q0: 0	 	
32	 	 	22	 Q0: 0	 	
33	 	 	16	 Q0: 0	 	
34	 	 	12	 Q0: 0	 	
35	 	 	24	 Q0: 0	 	
36	 	 	16	 Q0: 0	 	
37	 	 	40	 Q0: 0	 	
38	 	 	26	 Q0: 0	 	
39	 	 	26	 Q0: 0	 	
40	 	 	28	 Q0: 0	 	
41	 	 	34	 Q0: 0	 	
42	 	 	32	 Q0: 0	 	
43	 	 	21	 Q0: 0	 	
44	 	 	35	 Q0: 0	 	
45	 	 	22	 Q0: 0	 	
46	 	 	33	 Q0: 0	 	
47	 	 	27	 Q0: 0	 	
48	 	 	11	 Q0: 0	 	
49	 	 	39	 Q0: 0	 	
50	 	 	32	 Q0: 0	 	
51	 	 	32	 Q0: 0	 	
52	 	 	21	 Q0: 0	 	
53	 	 	12	 Q0: 0	 	
54	 	 	28	 Q0: 0	 	
55	 	 	13	 Q0: 0	 	
56	 	 	13	 Q0: 0	 	
57	 	 	40	 Q0: 0	 	
58	 	 	37	 Q0: 0	 	
59	 	 	24	 Q0: 0	 	
60	 	 	33	 Q0: 0	 	
61	 	 	11	 Q0: 0	 	
62	 	 	22	 Q0: 0	 	
63	 	 	25	 Q0: 0	 	
64	 	 	25	 Q0: 0	 	
65	 	 	26	 Q0: 0	 	
66	 	 	36	 Q0: 0	 	
67	 	 	16	 Q0: 0	 	
68	 	 	37	 Q0: 0	 	
69	 	 	26	 Q0: 0	 	
70	 	 	25	 Q0: 0	 	
71	 	 	25	 Q0: 0	 	
72	 	 	31	 Q0: 0	 	
73	 	 	31	 Q0: 0	 	
74	 	 	24	 Q0: 0	 	
75	 	 	38	 Q0: 0	 	
76	 	 	16	 Q0: 0	 	
77	 	 	40	 Q0: 0	 	
78	 	 	39	 Q0: 0	 	
79	 	 	35	 Q0: 0	 	
80	 	 	27	 Q0: 0	 	
81	 	 	12	 Q0: 0	 	
82	 	 	33	 Q0: 0	 	
83	 	 	29	 Q0: 0	 	
84	 	 	37	 Q0: 0	 	
85	 	 	38	 Q0: 0	 	
86	 	 	30	 Q0: 0	 	
87	 	 	35	 Q0: 0	 	
88	 	 	27	 Q0: 0	 	
89	 	 	9	 Q0: 0	 	
90	 	 	34	 Q0: 0	 	
91	 	 	26	 Q0: 0	 	
92	 	 	35	 Q0: 0	 	
93	 	 	34	 Q0: 0	 	
94	 	 	31	 Q0: 0	 	
95	 	 	31	 Q0: 0	 	
96	 	 	30	 Q0: 0	 	
97	 	 	37	 Q0: 0	 	
98	 	 	24	 Q0: 0	 	
99	 	 	17	 Q0: 0	 	
100	 	 	18	 Q0: 0	 	
========================================================== 
